data/solutions/recovery/degenerate/moderate/flexible/degenerate_moderate_instance1/31.sol
Elapsed time: 0.07
Upper bound: 237604.0
Planning weighted value: 1891877.0
C[0]=237604.0
C[1]=237598.0
C[2]=235934.0
y[0]=1
y[1]=2
y[2]=2
y[3]=0
y[4]=2
y[5]=1
y[6]=2
y[7]=2
y[8]=0
y[9]=1
y[10]=1
y[11]=1
y[12]=2
y[13]=1
y[14]=2
y[15]=2
y[16]=1
y[17]=0
y[18]=2
y[19]=0
y[20]=0
y[21]=1
